Academic license - for non-commercial use only
Gurobi Optimizer version 9.0.3 build v9.0.3rc0 (mac64)
Optimize a model with 255286 rows, 240480 columns and 1381170 nonzeros
Model fingerprint: 0xe5d0f311
Variable types: 0 continuous, 240480 integer (240480 binary)
Coefficient statistics:
  Matrix range     [1e+00, 1e+00]
  Objective range  [1e+01, 1e+05]
  Bounds range     [1e+00, 1e+00]
  RHS range        [1e+00, 1e+03]
Presolve added 0 rows and 5970 columns
Presolve removed 30 rows and 0 columns
Presolve time: 4.23s
Presolved: 255256 rows, 246450 columns, 1039110 nonzeros
Variable types: 0 continuous, 246450 integer (246450 binary)
Found heuristic solution: objective 1376986.0000

Concurrent LP optimizer: dual simplex and barrier
Showing barrier log only...

Root barrier log...

Ordering time: 0.07s

Barrier statistics:
 Dense cols : 240
 AA' NZ     : 8.111e+05
 Factor NZ  : 3.235e+06 (roughly 230 MBytes of memory)
 Factor Ops : 4.332e+08 (less than 1 second per iteration)
 Threads    : 3

                  Objective                Residual
Iter       Primal          Dual         Primal    Dual     Compl     Time
   0   3.75091543e+08 -4.73151536e+08  4.29e+02 2.92e+01  3.33e+04     8s
   1   3.68602898e+07 -5.86887061e+08  5.09e+01 5.59e+03  4.23e+03     8s
   2   3.15198476e+06 -2.59814310e+08  2.50e+00 1.05e+02  4.68e+02     8s
   3   1.44792389e+06 -2.04170027e+08  3.39e-02 8.22e+01  2.78e+02     8s
   4   1.43028527e+06 -4.54596490e+06  1.10e-02 2.27e+00  8.07e+00     9s
   5   1.41703675e+06 -1.19351673e+06  8.85e-03 9.32e-01  3.52e+00     9s
   6   1.38038659e+06 -4.13678566e+05  6.08e-03 6.27e-01  2.42e+00     9s
   7   1.34675392e+06  4.83629123e+05  4.61e-03 2.59e-01  1.16e+00    10s
   8   1.31204561e+06  8.53874202e+05  3.35e-03 1.22e-01  6.17e-01    10s
   9   1.29969454e+06  9.67125946e+05  3.02e-03 8.13e-02  4.47e-01    10s
  10   1.27860043e+06  1.01555953e+06  2.50e-03 6.22e-02  3.54e-01    10s
  11   1.27090491e+06  1.06044980e+06  2.32e-03 4.22e-02  2.83e-01    11s
  12   1.25076406e+06  1.09143268e+06  1.88e-03 2.84e-02  2.14e-01    11s
  13   1.23155541e+06  1.10700332e+06  1.50e-03 2.11e-02  1.67e-01    11s
  14   1.21733429e+06  1.12287833e+06  1.22e-03 1.42e-02  1.27e-01    12s
  15   1.20769024e+06  1.13405118e+06  1.04e-03 1.33e-02  9.90e-02    12s
  16   1.20149859e+06  1.13820544e+06  9.26e-04 1.09e-02  8.51e-02    12s
  17   1.19475262e+06  1.14449094e+06  7.87e-04 8.51e-03  6.75e-02    13s
  18   1.18651657e+06  1.14773756e+06  6.29e-04 1.37e-02  5.21e-02    13s
  19   1.18165457e+06  1.14948533e+06  5.28e-04 1.10e-02  4.32e-02    13s
  20   1.17652472e+06  1.15107813e+06  4.22e-04 6.94e-03  3.42e-02    14s
  21   1.17355460e+06  1.15210454e+06  3.60e-04 6.03e-03  2.88e-02    14s
  22   1.17082358e+06  1.15289592e+06  3.01e-04 5.04e-03  2.41e-02    14s
  23   1.16789765e+06  1.15354457e+06  2.39e-04 4.33e-03  1.93e-02    15s
  24   1.16623685e+06  1.15457523e+06  2.04e-04 3.78e-03  1.57e-02    15s
  25   1.16492823e+06  1.15470648e+06  1.75e-04 3.74e-03  1.37e-02    15s
  26   1.16423187e+06  1.15529365e+06  1.59e-04 2.72e-03  1.20e-02    16s
  27   1.16334547e+06  1.15552744e+06  1.39e-04 2.83e-03  1.05e-02    16s
  28   1.16231822e+06  1.15575176e+06  1.15e-04 2.54e-03  8.82e-03    16s
  29   1.16133607e+06  1.15595853e+06  9.27e-05 2.21e-03  7.22e-03    16s
  30   1.16104362e+06  1.15613540e+06  8.61e-05 1.95e-03  6.59e-03    17s
  31   1.16060328e+06  1.15629462e+06  7.62e-05 1.98e-03  5.79e-03    17s
  32   1.16022295e+06  1.15638393e+06  6.72e-05 1.82e-03  5.16e-03    17s
  33   1.15982707e+06  1.15649192e+06  5.81e-05 1.45e-03  4.48e-03    18s
  34   1.15957642e+06  1.15665137e+06  5.24e-05 2.03e-03  3.93e-03    18s
  35   1.15937114e+06  1.15682333e+06  4.75e-05 1.56e-03  3.42e-03    18s
  36   1.15920426e+06  1.15688277e+06  4.36e-05 1.40e-03  3.12e-03    19s
  37   1.15904771e+06  1.15693222e+06  3.99e-05 1.24e-03  2.84e-03    19s
  38   1.15894439e+06  1.15695796e+06  3.75e-05 1.15e-03  2.67e-03    19s
  39   1.15884597e+06  1.15697781e+06  3.51e-05 1.10e-03  2.51e-03    19s
  40   1.15868121e+06  1.15705411e+06  3.13e-05 9.05e-04  2.18e-03    20s
  41   1.15856515e+06  1.15709421e+06  2.85e-05 8.02e-04  1.98e-03    20s
  42   1.15850151e+06  1.15712120e+06  2.70e-05 7.03e-04  1.85e-03    20s
  43   1.15844122e+06  1.15714322e+06  2.54e-05 6.58e-04  1.74e-03    21s
  44   1.15830475e+06  1.15715542e+06  2.22e-05 6.30e-04  1.54e-03    21s
  45   1.15825178e+06  1.15717596e+06  2.10e-05 5.67e-04  1.44e-03    21s
  46   1.15816531e+06  1.15720901e+06  1.89e-05 4.84e-04  1.28e-03    22s
  47   1.15807709e+06  1.15723835e+06  1.67e-05 4.40e-04  1.13e-03    22s
  48   1.15799705e+06  1.15726046e+06  1.48e-05 3.75e-04  9.89e-04    22s
  49   1.15790684e+06  1.15728658e+06  1.25e-05 3.43e-04  8.33e-04    22s
  50   1.15782563e+06  1.15730593e+06  1.06e-05 2.98e-04  6.98e-04    23s
  51   1.15777960e+06  1.15731734e+06  9.60e-06 2.61e-04  6.21e-04    23s
  52   1.15770943e+06  1.15733357e+06  7.87e-06 2.37e-04  5.05e-04    23s
  53   1.15766516e+06  1.15733711e+06  6.80e-06 2.24e-04  4.40e-04    24s
  54   1.15765137e+06  1.15734707e+06  6.45e-06 1.94e-04  4.08e-04    24s
  55   1.15763027e+06  1.15735333e+06  5.88e-06 1.72e-04  3.72e-04    24s
  56   1.15759023e+06  1.15735762e+06  4.82e-06 1.57e-04  3.12e-04    24s
  57   1.15757919e+06  1.15736252e+06  4.53e-06 1.42e-04  2.91e-04    25s
  58   1.15755796e+06  1.15737143e+06  4.00e-06 1.05e-04  2.50e-04    25s
  59   1.15753879e+06  1.15737466e+06  3.52e-06 9.58e-05  2.20e-04    25s
  60   1.15751982e+06  1.15737796e+06  3.03e-06 8.78e-05  1.90e-04    26s
  61   1.15750637e+06  1.15738063e+06  2.69e-06 8.24e-05  1.69e-04    26s
  62   1.15750158e+06  1.15738226e+06  2.56e-06 7.63e-05  1.60e-04    26s
  63   1.15748865e+06  1.15738366e+06  2.22e-06 7.20e-05  1.41e-04    26s
  64   1.15747969e+06  1.15738573e+06  1.98e-06 6.56e-05  1.26e-04    27s
  65   1.15746954e+06  1.15738823e+06  1.71e-06 5.72e-05  1.09e-04    27s
  66   1.15745269e+06  1.15739162e+06  1.27e-06 4.64e-05  8.20e-05    27s
  67   1.15744318e+06  1.15739536e+06  1.00e-06 3.49e-05  6.42e-05    27s
  68   1.15743603e+06  1.15739792e+06  8.00e-07 2.64e-05  5.12e-05    28s
  69   1.15743440e+06  1.15739994e+06  7.56e-07 2.01e-05  4.63e-05    28s
  70   1.15742756e+06  1.15740262e+06  5.67e-07 1.13e-05  3.35e-05    28s
  71   1.15742183e+06  1.15740338e+06  4.11e-07 9.18e-06  2.48e-05    29s
  72   1.15742015e+06  1.15740399e+06  3.68e-07 7.67e-06  2.17e-05    29s
  73   1.15741602e+06  1.15740491e+06  2.54e-07 4.83e-06  1.49e-05    29s
  74   1.15741365e+06  1.15740604e+06  1.91e-07 1.74e-06  1.02e-05    29s
  75   1.15741029e+06  1.15740624e+06  9.62e-08 1.11e-06  5.43e-06    30s
  76   1.15740861e+06  1.15740634e+06  5.19e-08 7.20e-07  3.05e-06    30s
  77   1.15740687e+06  1.15740655e+06  5.10e-09 1.83e-07  4.18e-07    30s
  78   1.15740667e+06  1.15740665e+06  5.43e-10 2.23e-07  3.40e-08    30s
  79   1.15740667e+06  1.15740665e+06  3.03e-08 2.06e-07  3.23e-08    31s
  80   1.15740667e+06  1.15740665e+06  3.03e-08 2.06e-07  3.23e-08    31s
  81   1.15740667e+06  1.15740665e+06  7.85e-08 2.06e-07  3.23e-08    31s

Barrier solved model in 81 iterations and 31.24 seconds
Optimal objective 1.15740667e+06


Root crossover log...

  103564 DPushes remaining with DInf 5.1571923e-05                31s
       0 DPushes remaining with DInf 0.0000000e+00                32s

    1404 PPushes remaining with PInf 1.0744105e-05                32s
       0 PPushes remaining with PInf 0.0000000e+00                32s

  Push phase complete: Pinf 0.0000000e+00, Dinf 2.0372681e-10     32s


Root simplex log...

Iteration    Objective       Primal Inf.    Dual Inf.      Time
   19371    1.1574066e+06   0.000000e+00   0.000000e+00     32s

Solved with barrier

Root relaxation: objective 1.157407e+06, 19371 iterations, 25.75 seconds
Total elapsed time = 35.05s

    Nodes    |    Current Node    |     Objective Bounds      |     Work
 Expl Unexpl |  Obj  Depth IntInf | Incumbent    BestBd   Gap | It/Node Time

     0     0 1157406.65    0 14041 1376986.00 1157406.65  15.9%     -   35s
H    0     0                    1166092.0000 1157406.65  0.74%     -   37s
H    0     0                    1164880.0000 1157406.65  0.64%     -   50s
     0     0 1157408.38    0 14002 1164880.00 1157408.38  0.64%     -   64s
     0     0 1157408.58    0 14009 1164880.00 1157408.58  0.64%     -   69s
     0     0 1157409.34    0 14005 1164880.00 1157409.34  0.64%     -   72s
     0     0 1157409.67    0 14049 1164880.00 1157409.67  0.64%     -   74s
     0     0 1157429.51    0 14033 1164880.00 1157429.51  0.64%     -   87s
     0     0 1157432.10    0 14013 1164880.00 1157432.10  0.64%     -   90s
     0     0 1157432.64    0 14015 1164880.00 1157432.64  0.64%     -   94s
     0     0 1157432.84    0 14015 1164880.00 1157432.84  0.64%     -   98s
     0     0 1157442.98    0 14059 1164880.00 1157442.98  0.64%     -  116s
     0     0 1157444.16    0 14067 1164880.00 1157444.16  0.64%     -  121s
     0     0 1157444.48    0 14063 1164880.00 1157444.48  0.64%     -  125s
     0     0 1157444.51    0 14063 1164880.00 1157444.51  0.64%     -  127s
     0     0 1157454.89    0 14048 1164880.00 1157454.89  0.64%     -  144s
H    0     0                    1164810.0000 1157454.89  0.63%     -  251s
     0     0 1157455.39    0 14344 1164810.00 1157455.39  0.63%     -  263s
     0     0 1157455.39    0 14349 1164810.00 1157455.39  0.63%     -  264s
     0     0 1157465.67    0 14870 1164810.00 1157465.67  0.63%     -  287s
     0     0 1157467.11    0 14887 1164810.00 1157467.11  0.63%     -  292s
     0     0 1157468.43    0 14901 1164810.00 1157468.43  0.63%     -  294s
     0     0 1157468.47    0 14382 1164810.00 1157468.47  0.63%     -  295s

Cutting planes:
  Gomory: 3
  Zero half: 117

Explored 1 nodes (27679 simplex iterations) in 300.11 seconds
Thread count was 8 (of 8 available processors)

Solution count 4: 1.16481e+06 1.16488e+06 1.16609e+06 1.37699e+06 

Time limit reached
Best objective 1.164810000000e+06, best bound 1.157468469288e+06, gap 0.6303%

User-callback calls 37803, time in user-callback 0.28 sec
Solution written to /Users/mdeboute/Desktop/Etudes/Master/M2/S9/GOPP/Projet/multi-period-flp/solution/instMulti_I30_J1000_T8_1_result.txt
